
(set-logic ALL) 

(declare-datatype MyList ((Nil) (Cons (head Real) (tail MyList)) )) 
(declare-fun l0 () MyList) 
(declare-fun l1 () MyList) 
(declare-fun l2 () MyList) 
(declare-fun l3 () MyList) 
(declare-fun i0 () Real) 
(declare-fun i1 () Real) 
(assert (and (= l0 Nil) (is-Cons Nil)) )
(assert (or (= l3 Nil) (= l1 Nil)) )
(assert (or (is-Nil Nil) (= l1 l0) (= l2 Nil) (= l0 l3)) )
(assert (or (is-Cons l1) (= l2 Nil) (= l2 Nil)) )
(assert (and (= l3 Nil) (= l0 Nil)) )
(assert (= l1 l0) )
(assert (= l0 Nil) )
(assert (= l1 Nil) )
(check-sat)
